4 1 23 59 60 38 37 47 68 49 46 30 72 73 14 26 45 13 19 29 8 41 44 43 69 15 33 6 65 27 76 48 10 63 24 64 56 75 57 22 40 51 70 34 58 28 11 32 39 42 7 71 17 12 3 35 55 18 16 31 50 21 5 20 62 25 74 53 66 0 36 2 67 54 9 52 61 